/* Objective function */
  max: 4x1 -2x2 +7x3 -x4 ;
/* Constraints */
  x1    + 5x3      <=10;
  x1 +x2  -x3      <=1;
 6x1-5x2           <=0;
 -x1    + 2x3 -2x4 <=3;
 
 x1 >=0;
 x2 >=0;
 x3 >=0;
 x4 >=0;
 

 